NAME: instance_9
TYPE: TSP
COMMENT: 9-city problem
DIMENSION: 9
EDGE_WEIGHT_TYPE: EUC_2D
NODE_COORD_SECTION
0 223 764
1 330 211
2 222 125
3 838 962
4 930 850
5 234 230
6 595 108
7 790 602
8 412 120
EOF
